data;


param d:= 100;
param r:=5;
param p:=0.700000;
param M:=1000;
param U:=
         1         1        1.642658e+00
         2         1        1.265761e+00
         3         1        4.148853e-01
         4         1        1.672067e-01
         5         1        1.454898e+00
         6         1       -8.932858e-01
         7         1       -1.422432e+00
         8         1       -1.467477e+00
         9         1        6.526784e-01
        10         1       -1.147948e+00
        11         1       -2.207806e-01
        12         1        8.071622e-01
        13         1       -1.235567e+00
        14         1        4.648953e-01
        15         1       -1.345122e+00
        16         1        1.835746e-02
        17         1       -4.531826e-01
        18         1        4.086967e-01
        19         1        9.410012e-02
        20         1       -1.196673e+00
        21         1        1.122684e-02
        22         1        1.522110e+00
        23         1       -1.597117e+00
        24         1       -3.102411e-01
        25         1       -6.659381e-01
        26         1       -2.221834e+00
        27         1       -5.730700e-01
        28         1       -1.210207e+00
        29         1        1.033201e+00
        30         1        1.820929e-01
        31         1        6.059174e-01
        32         1       -6.122962e-01
        33         1       -9.436108e-01
        34         1        1.492494e-01
        35         1        7.157996e-03
        36         1        1.105087e+00
        37         1       -7.645280e-01
        38         1        1.033463e-01
        39         1       -5.508356e-01
        40         1       -6.853605e-01
        41         1        1.225466e+00
        42         1        2.351309e-01
        43         1       -7.231641e-01
        44         1        1.256926e+00
        45         1       -9.205546e-01
        46         1       -6.462180e-01
        47         1       -1.928268e-01
        48         1        2.158555e-01
        49         1        1.028668e+00
        50         1        7.197270e-01
        51         1        1.124934e+00
        52         1       -1.284712e+00
        53         1        2.103975e+00
        54         1       -8.382743e-01
        55         1       -1.322007e+00
        56         1        2.609237e-01
        57         1       -1.491562e-01
        58         1        1.649378e-01
        59         1       -6.385940e-01
        60         1        1.166428e+00
        61         1        1.566755e+00
        62         1        6.445204e-01
        63         1        1.613562e-01
        64         1        1.903136e-01
        65         1        1.821105e+00
        66         1       -1.374991e+00
        67         1       -7.872733e-01
        68         1        3.788457e-01
        69         1       -1.071645e+00
        70         1        4.197211e-01
        71         1       -1.253256e+00
        72         1       -3.327874e-02
        73         1        1.061690e+00
        74         1        6.335649e-01
        75         1       -4.079672e-01
        76         1        1.247273e-01
        77         1       -4.729189e-01
        78         1        1.333521e-01
        79         1        2.058217e-01
        80         1        1.836016e+00
        81         1        2.576875e+00
        82         1        5.887232e-01
        83         1       -2.366092e+00
        84         1        1.363699e+00
        85         1        2.307090e-01
        86         1        1.034332e+00
        87         1       -4.074159e-01
        88         1        2.194645e-01
        89         1       -5.193659e-01
        90         1        1.152774e+00
        91         1        7.744914e-01
        92         1        1.780255e-01
        93         1        1.240893e+00
        94         1        9.788312e-01
        95         1        6.841342e-01
        96         1        1.047453e+00
        97         1       -1.942761e-01
        98         1        9.434852e-01
        99         1        1.315378e-01
       100         1       -6.890269e-01
         1         2        2.326808e+00
         2         2        2.627827e+00
         3         2       -6.706504e-01
         4         2        1.181654e-01
         5         2        1.911386e-01
         6         2       -1.548113e+00
         7         2        7.334559e-01
         8         2        3.793268e-01
         9         2        2.577340e-01
        10         2       -2.426214e-01
        11         2       -3.086837e-01
        12         2        7.987727e-02
        13         2       -6.513810e-01
        14         2       -1.431120e-01
        15         2       -1.432137e+00
        16         2        1.397403e+00
        17         2        4.824830e-01
        18         2        2.782179e-01
        19         2       -1.365189e+00
        20         2       -1.708367e+00
        21         2       -3.505258e+00
        22         2       -8.412358e-02
        23         2        9.979588e-01
        24         2       -7.557754e-01
        25         2        1.208359e+00
        26         2       -5.030472e-03
        27         2        6.711100e-01
        28         2        6.332710e-01
        29         2        2.132210e-01
        30         2        1.911901e-01
        31         2        4.511694e-02
        32         2        2.706916e+00
        33         2        8.437673e-02
        34         2        3.414830e-01
        35         2        7.050574e-01
        36         2       -4.648993e-01
        37         2        6.062639e-01
        38         2       -7.311245e-01
        39         2        7.924315e-01
        40         2       -2.442817e-01
        41         2       -1.543883e+00
        42         2       -2.397005e-01
        43         2       -1.129066e+00
        44         2       -1.305841e+00
        45         2       -2.612111e-01
        46         2        8.404100e-01
        47         2        7.403670e-01
        48         2        7.479409e-01
        49         2       -4.131512e-01
        50         2        1.018998e+00
        51         2       -3.557985e-01
        52         2       -3.429554e-01
        53         2       -8.121899e-01
        54         2        4.976644e-01
        55         2       -1.185855e+00
        56         2        1.056244e+00
        57         2       -2.790273e-01
        58         2       -1.816048e+00
        59         2        1.256825e+00
        60         2        6.599431e-01
        61         2       -3.445080e-01
        62         2        4.058850e-01
        63         2       -1.072950e+00
        64         2        5.654736e-01
        65         2       -1.078379e+00
        66         2        1.722447e+00
        67         2       -6.459070e-01
        68         2        6.355365e-01
        69         2       -8.981072e-01
        70         2       -4.667155e-01
        71         2       -1.869762e-01
        72         2       -9.948589e-01
        73         2       -1.412029e+00
        74         2        6.420470e-01
        75         2       -1.893776e+00
        76         2        5.463552e-01
        77         2       -1.513535e+00
        78         2       -1.787229e-01
        79         2       -9.837907e-01
        80         2       -5.338370e-01
        81         2        5.838919e-01
        82         2        1.877352e+00
        83         2       -1.850537e-01
        84         2        4.297796e-01
        85         2        1.384852e+00
        86         2        4.537508e-01
        87         2        2.376543e-01
        88         2       -8.175629e-01
        89         2       -2.684111e-01
        90         2       -1.197519e+00
        91         2        4.756647e-01
        92         2        3.985365e-01
        93         2        1.455459e+00
        94         2        5.897407e-01
        95         2       -3.001281e-01
        96         2        1.926624e+00
        97         2       -3.602289e-01
        98         2        7.252434e-01
        99         2        1.835578e+00
       100         2       -2.300990e-01
         1         3        2.504807e-01
         2         3        9.951118e-01
         3         3        3.883129e-01
         4         3        5.398187e-01
         5         3       -1.372503e+00
         6         3        1.937254e-01
         7         3        3.051654e-01
         8         3        3.414604e-01
         9         3       -1.426248e-01
        10         3       -2.656349e-01
        11         3       -6.910598e-01
        12         3        7.458722e-01
        13         3        4.296306e-01
        14         3       -9.149721e-01
        15         3       -6.894135e-01
        16         3        8.182183e-02
        17         3       -4.504989e-01
        18         3       -5.247109e-01
        19         3        5.741638e-01
        20         3       -2.637551e-01
        21         3       -1.295708e+00
        22         3        3.489342e-01
        23         3        1.042697e+00
        24         3       -4.012782e-01
        25         3       -1.053804e+00
        26         3        2.405465e-01
        27         3        1.598519e+00
        28         3       -4.636258e-01
        29         3        1.568451e+00
        30         3       -6.468226e-01
        31         3        1.657070e+00
        32         3       -9.342082e-01
        33         3       -9.958129e-01
        34         3        3.685160e-01
        35         3        5.120556e-01
        36         3       -8.560822e-01
        37         3        2.683478e+00
        38         3       -5.447410e-01
        39         3        4.470307e-01
        40         3        1.239458e+00
        41         3        2.082933e+00
        42         3        6.903963e-01
        43         3        8.270799e-01
        44         3       -1.375427e+00
        45         3        4.699767e-01
        46         3       -9.130153e-01
        47         3       -1.933160e+00
        48         3       -6.786178e-01
        49         3       -1.146238e+00
        50         3       -1.188307e+00
        51         3        1.991335e-01
        52         3       -5.614094e-01
        53         3       -9.886055e-01
        54         3        6.778811e-01
        55         3        1.287108e+00
        56         3        2.706586e-02
        57         3        1.174819e+00
        58         3        1.168791e-01
        59         3        4.687758e-02
        60         3        1.121425e+00
        61         3        5.898003e-01
        62         3        4.197402e-01
        63         3        1.123603e+00
        64         3       -6.416247e-01
        65         3       -8.339672e-01
        66         3       -6.513978e-01
        67         3        5.585754e-01
        68         3       -1.326777e+00
        69         3       -9.937892e-01
        70         3        1.527448e+00
        71         3       -9.089315e-03
        72         3        1.499364e+00
        73         3       -4.659722e-01
        74         3        1.400098e+00
        75         3        7.247750e-01
        76         3        2.518370e-01
        77         3       -3.800733e-02
        78         3       -1.817017e-01
        79         3       -1.965064e+00
        80         3        8.069213e-02
        81         3        2.209359e-01
        82         3        4.693390e-01
        83         3        2.356999e-01
        84         3        1.801959e-01
        85         3        8.311276e-01
        86         3        1.111027e+00
        87         3       -1.459906e+00
        88         3       -2.941002e-01
        89         3        3.671600e-01
        90         3       -5.739657e-01
        91         3       -1.118175e+00
        92         3        7.568642e-02
        93         3       -1.761194e+00
        94         3        2.524254e-01
        95         3        1.129215e+00
        96         3       -1.088946e+00
        97         3        6.939064e-02
        98         3       -4.681055e-01
        99         3       -5.267092e-01
       100         3       -1.319115e+00
         1         4       -7.447447e-01
         2         4       -7.093225e-01
         3         4       -1.714966e+00
         4         4       -1.089381e+00
         5         4        7.398331e-01
         6         4       -1.587807e+00
         7         4       -1.201425e-01
         8         4        7.351685e-01
         9         4        1.132364e+00
        10         4        7.610671e-02
        11         4        4.032652e-01
        12         4        1.917533e-01
        13         4        7.993522e-02
        14         4        2.726447e-01
        15         4        3.640626e-01
        16         4       -7.727337e-01
        17         4        4.667824e-03
        18         4       -7.427512e-01
        19         4       -9.666034e-02
        20         4       -2.606619e+00
        21         4       -7.995857e-01
        22         4        1.007098e+00
        23         4       -7.805354e-01
        24         4       -1.447946e+00
        25         4       -1.393246e-01
        26         4       -7.170424e-01
        27         4       -1.506317e+00
        28         4        2.630019e-01
        29         4        6.836022e-01
        30         4        1.240864e-01
        31         4       -7.518973e-01
        32         4        7.046566e-02
        33         4       -1.783076e+00
        34         4        2.646146e-01
        35         4       -9.345295e-01
        36         4       -4.707623e-01
        37         4       -6.885591e-01
        38         4        1.253215e+00
        39         4       -9.685125e-01
        40         4       -1.582762e+00
        41         4        9.575855e-02
        42         4        1.437938e+00
        43         4       -1.598189e+00
        44         4       -1.158429e+00
        45         4        1.444025e+00
        46         4       -4.626864e-01
        47         4        1.526283e+00
        48         4        1.391876e-01
        49         4        2.595672e-01
        50         4       -7.788338e-01
        51         4        2.019255e+00
        52         4       -8.889131e-01
        53         4       -1.603991e+00
        54         4       -9.186185e-01
        55         4        2.297907e+00
        56         4        3.025096e-01
        57         4        4.187973e-01
        58         4       -1.910716e-01
        59         4       -1.462093e+00
        60         4        4.065249e-01
        61         4       -1.130955e+00
        62         4       -1.100410e+00
        63         4        1.232189e+00
        64         4       -8.983747e-02
        65         4       -2.623265e-01
        66         4        8.455580e-01
        67         4        7.329657e-02
        68         4        6.055740e-01
        69         4       -2.328688e+00
        70         4       -5.585514e-01
        71         4       -1.452964e+00
        72         4       -1.843433e-01
        73         4       -1.310384e+00
        74         4       -1.157492e+00
        75         4        1.839172e-01
        76         4       -7.934529e-01
        77         4       -2.788619e-01
        78         4       -1.109342e+00
        79         4        4.073284e-01
        80         4        2.521918e+00
        81         4        1.278396e+00
        82         4        1.466584e+00
        83         4        5.200293e-01
        84         4       -1.975787e+00
        85         4       -1.360239e+00
        86         4        1.585492e-01
        87         4        5.891708e-02
        88         4       -3.631673e-01
        89         4       -1.130748e+00
        90         4       -3.019171e-02
        91         4       -1.049301e-01
        92         4        2.469579e-01
        93         4       -1.504209e+00
        94         4        1.349562e+00
        95         4       -4.894654e-01
        96         4        8.297166e-01
        97         4        1.111793e+00
        98         4       -7.352964e-01
        99         4       -4.245553e-01
       100         4        3.894650e-01
         1         5        9.689191e-03
         2         5       -1.581324e+00
         3         5        1.009083e+00
         4         5       -2.681094e-01
         5         5       -7.050456e-01
         6         5       -1.118221e+00
         7         5       -3.156518e-01
         8         5       -1.154519e+00
         9         5        9.440450e-01
        10         5        4.053049e-01
        11         5       -2.416055e-01
        12         5       -2.102330e-01
        13         5       -8.348591e-01
        14         5        2.311173e+00
        15         5        1.685342e+00
        16         5        1.809025e+00
        17         5        7.477986e-01
        18         5        5.635401e-01
        19         5       -1.285471e+00
        20         5       -2.155175e-01
        21         5       -9.855977e-01
        22         5       -1.308286e+00
        23         5       -6.534853e-01
        24         5       -1.020165e+00
        25         5        7.055551e-01
        26         5       -6.790866e-01
        27         5       -7.337983e-01
        28         5        5.392538e-01
        29         5       -1.114267e+00
        30         5       -3.113217e-02
        31         5       -2.372767e-01
        32         5       -6.742979e-01
        33         5        8.375741e-01
        34         5       -8.940092e-01
        35         5       -1.761171e+00
        36         5       -4.309957e-01
        37         5        9.442403e-01
        38         5        5.506668e-03
        39         5        1.704419e+00
        40         5       -1.747660e+00
        41         5       -2.190126e+00
        42         5       -1.448832e+00
        43         5        1.517144e+00
        44         5        8.378397e-02
        45         5       -9.709671e-02
        46         5       -1.744226e+00
        47         5        2.478917e-02
        48         5       -3.943675e-01
        49         5        3.168557e-01
        50         5        1.699958e+00
        51         5        6.775558e-01
        52         5       -6.271034e-01
        53         5        2.288719e+00
        54         5       -1.543839e+00
        55         5        8.809937e-01
        56         5        1.606587e-01
        57         5        4.569562e-01
        58         5       -1.049060e+00
        59         5        6.298126e-01
        60         5       -2.271978e-01
        61         5        2.046283e+00
        62         5       -1.200504e+00
        63         5        1.114891e+00
        64         5        6.619753e-01
        65         5        1.313455e+00
        66         5        1.004370e-01
        67         5       -2.649507e-01
        68         5        1.081962e+00
        69         5       -8.751144e-01
        70         5       -4.689321e-01
        71         5        6.554845e-01
        72         5       -1.806879e-01
        73         5        7.539695e-01
        74         5        1.082158e+00
        75         5       -1.110320e+00
        76         5       -1.293388e+00
        77         5       -9.729951e-01
        78         5        1.825286e+00
        79         5        2.964787e-01
        80         5        2.475442e-01
        81         5        8.782184e-01
        82         5        6.953580e-01
        83         5       -3.003420e-01
        84         5       -5.247097e-01
        85         5       -6.124955e-01
        86         5        8.240119e-01
        87         5       -4.544195e-01
        88         5        1.331833e+00
        89         5       -1.121509e+00
        90         5       -1.114363e+00
        91         5        1.532288e+00
        92         5       -1.475605e-01
        93         5       -5.233443e-01
        94         5        1.622528e+00
        95         5       -1.615774e-01
        96         5        7.596348e-01
        97         5       -3.553496e-02
        98         5        1.247249e+00
        99         5       -5.790147e-01
       100         5       -3.409648e-01
;

param theta:=
    1        6.744500e-01
    2       -1.468431e-01
    3        4.801183e-01
    4        2.503781e+00
    5        8.340279e-01
;
param X_true:=
    1       -9.701213e-01
    2       -2.149271e+00
    3       -2.887559e+00
    4       -2.596585e+00
    5        1.558577e+00
    6       -5.190284e+00
    7       -1.484620e+00
    8       -3.700464e-03
    9        3.956427e+00
   10       -3.375524e-01
   11        3.728140e-01
   12        1.195536e+00
   13       -1.027560e+00
   14        2.505494e+00
   15        1.289237e+00
   16       -5.795123e-01
   17        4.258098e-02
   18       -1.406810e+00
   19       -7.745344e-01
   20       -7.389019e+00
   21       -2.923801e+00
   22        2.636876e+00
   23       -3.222416e+00
   24       -4.767109e+00
   25       -8.929172e-01
   26       -3.743981e+00
   27       -4.101073e+00
   28       -2.355889e-02
   29        2.200835e+00
   30        6.890621e-02
   31       -8.828562e-01
   32       -1.644938e+00
   33       -4.892787e+00
   34        1.443565e-01
   35       -3.661581e+00
   36       -1.135576e+00
   37       -2.527529e-01
   38        3.057891e+00
   39       -1.276656e+00
   40       -5.251769e+00
   41        4.664100e-01
   42        2.917170e+00
   43       -2.661020e+00
   44       -2.451456e+00
   45        3.177675e+00
   46       -3.610804e+00
   47        2.675239e+00
   48       -2.704814e-01
   49        1.118290e+00
   50       -7.669574e-01
   51        6.527438e+00
   52       -3.834321e+00
   53       -1.043545e+00
   54       -3.900614e+00
   55        6.388699e+00
   56        9.252842e-01
   57        1.934118e+00
   58       -9.193144e-01
   59       -3.728229e+00
   60        2.056566e+00
   61        2.654544e-01
   62       -3.179818e+00
   63        4.820825e+00
   64        6.443787e-02
   65        1.424844e+00
   66        7.078194e-01
   67       -2.054050e-01
   68        1.943789e+00
   69       -7.628420e+00
   70       -7.046225e-01
   71       -3.913378e+00
   72        2.312614e-01
   73       -1.952400e+00
   74       -9.903167e-01
   75       -1.146372e-01
   76       -2.940549e+00
   77       -1.624670e+00
   78       -1.226266e+00
   79        6.069487e-01
   80        7.876222e+00
   81        5.691591e+00
   82        4.598680e+00
   83       -4.039273e-01
   84       -4.441410e+00
   85       -3.565295e+00
   86        2.248621e+00
   87       -1.242090e+00
   88        3.283630e-01
   89       -3.901107e+00
   90       -3.272385e-01
   91        9.308997e-01
   92        5.931443e-01
   93       -4.425080e+00
   94        5.427009e+00
   95       -3.126313e-01
   96        2.611705e+00
   97        2.709232e+00
   98       -4.956899e-01
   99       -1.979617e+00
  100       -3.734958e-01
;
param X:=
    1       -4.319971e-01
    2       -1.702487e+00
    3       -1.107704e-01
    4       -2.596585e+00
    5       -6.848281e-01
    6       -5.190284e+00
    7       -7.918510e-02
    8       -3.700464e-03
    9       -5.737922e-01
   10       -3.375524e-01
   11        5.111821e-01
   12        1.195536e+00
   13       -2.467024e-01
   14        7.042550e-01
   15        5.986502e-02
   16       -6.821245e-02
   17       -1.206046e-01
   18       -3.676918e-01
   19       -7.745344e-01
   20       -7.389019e+00
   21        2.461367e+00
   22        5.611915e-01
   23       -3.222416e+00
   24       -1.351367e+00
   25       -8.929172e-01
   26       -8.354147e-01
   27        6.556332e-01
   28       -1.480351e-01
   29       -1.813576e-01
   30        2.365992e+00
   31       -5.496066e-01
   32        1.217738e+00
   33       -5.124721e-01
   34       -2.797221e-01
   35       -3.661581e+00
   36       -1.135576e+00
   37       -7.146786e-01
   38        2.645460e-02
   39       -7.404379e-01
   40       -9.848646e-01
   41        5.923498e-01
   42        2.917170e+00
   43       -2.661020e+00
   44       -8.009938e-03
   45        3.177675e+00
   46       -7.670720e-01
   47        2.675239e+00
   48        1.421926e+00
   49        1.118290e+00
   50        1.727172e+00
   51        6.527438e+00
   52        6.013830e-01
   53       -3.197672e-01
   54       -8.621071e-01
   55        1.488466e-01
   56       -6.551641e-01
   57       -4.002458e-01
   58       -2.590245e-01
   59       -3.728229e+00
   60       -2.307684e-01
   61        9.186435e-01
   62       -3.761442e-01
   63        4.820825e+00
   64        8.000279e-01
   65       -1.033676e+00
   66       -7.376964e-01
   67       -1.512263e+00
   68       -1.125823e+00
   69       -7.628420e+00
   70        3.687557e-01
   71        7.319004e-01
   72        2.312614e-01
   73        1.334505e-01
   74       -7.281509e-01
   75        1.004249e+00
   76       -2.433829e-01
   77        6.342234e-01
   78       -1.226266e+00
   79       -1.700650e+00
   80       -2.910516e-01
   81        5.691591e+00
   82       -9.292976e-01
   83       -4.039273e-01
   84       -4.656045e-01
   85       -3.565295e+00
   86        2.248621e+00
   87       -5.841919e-01
   88       -1.380993e+00
   89        1.764220e-01
   90       -3.272385e-01
   91        9.534018e-01
   92        5.931443e-01
   93       -9.629252e-03
   94       -1.336904e-01
   95        1.561877e-01
   96        2.611705e+00
   97        2.709232e+00
   98       -3.622049e-01
   99        1.250074e+00
  100       -1.685885e-01
;
param outliervec:=
    1    1
    2    1
    3    1
    4    0
    5    1
    6    0
    7    1
    8    0
    9    1
   10    0
   11    1
   12    0
   13    1
   14    1
   15    1
   16    1
   17    1
   18    1
   19    0
   20    0
   21    1
   22    1
   23    0
   24    1
   25    0
   26    1
   27    1
   28    1
   29    1
   30    1
   31    1
   32    1
   33    1
   34    1
   35    0
   36    0
   37    1
   38    1
   39    1
   40    1
   41    1
   42    0
   43    0
   44    1
   45    0
   46    1
   47    0
   48    1
   49    0
   50    1
   51    0
   52    1
   53    1
   54    1
   55    1
   56    1
   57    1
   58    1
   59    0
   60    1
   61    1
   62    1
   63    0
   64    1
   65    1
   66    1
   67    1
   68    1
   69    0
   70    1
   71    1
   72    0
   73    1
   74    1
   75    1
   76    1
   77    1
   78    0
   79    1
   80    1
   81    0
   82    1
   83    0
   84    1
   85    0
   86    0
   87    1
   88    1
   89    1
   90    0
   91    1
   92    0
   93    1
   94    1
   95    1
   96    0
   97    0
   98    1
   99    1
  100    1
;